50 997
304 1046 548 919 754 520 963 900 1028 506 394 1041 901 170 708 660 869 895 170 683 108 695 283 795 796 563 716 842 661 271 901 452 581 958 496 282 1097 987 558 706 837 570 944 1055 756 652 431 864 565 593 
204 946 448 819 654 420 863 800 928 406 294 941 801 70 608 560 769 795 70 583 8 595 183 695 696 463 616 742 561 171 801 352 481 858 396 182 997 887 458 606 737 470 844 955 656 552 331 764 465 493 
